24
32
24
32
31
24
24
24
24
31
24
24
24
32
24
24
32
31
32
24
24
31
32
24
24
24
32
32
31
31
32
31
31
24
24
24
31
32
32
24
24
32
24
24
24
32
32
32
24
24
32
31
24
24
24
24
24
24
24
24
31
24
32
24
24
24
24
31
31
24
24
32
31
31
32
31
31
24
32
31
24
24
24
24
24
32
32
31
24
31
32
31
31
31
32
24
24
24
24
24
32
24
31
24
31
24
24
24
31
24
31
24
24
24
32
32
31
24
31
24
24
24
24
32
31
24
32
24
24
24
31
24
31
32
31
24
32
24
24
24
24
24
24
31
31
24
32
24
31
24
31
31
31
32
31
24
24
32
24
31
32
24
24
32
24
24
24
24
32
24
24
24
31
32
24
31
24
31
31
24
31
24
32
31
24
32
24
24
24
24
32
32
24
31
24
31
24
24
24
32
24
32
24
24
32
32
24
32
24
24
31
32
32
24
24
24
32
24
31
24
31
31
24
24
24
24
24
24
24
24
24
24
24
24
24
24
24
32
32
24
24
31
31
31
24
32
24
24
24
24
24
32
32
31
31
31
31
31
31
24
32
24
24
24
24
24
31
32
24
24
32
24
24
24
24
32
24
24
24
24
24
32
24
24
24
32
32
24
31
24
32
24
24
24
24
24
24
24
24
24
24
24
24
24
24
31
32
24
24
24
24
24
32
24
31
24
31
32
32
32
31
24
24
31
24
32
32
24
32
24
24
24
32
24
24
24
24
31
31
24
24
24
24
31
31
31
24
32
32
32
31
24
24
32
32
24
31
24
24
24
31
31
31
24
24
24
24
32
24
24
32
24
31
31
32
32
31
31
24
24
32
31
32
24
24
24
31
24
24
32
24
24
31
32
24
24
24
24
32
32
31
24
24
24
32
32
24
24
24
24
31
31
32
31
31
31
24
31
31
24
24
24
32
32
24
31
24
32
32
24
24
31
24
24
24
24
24
31
24
24
24
32
24
31
24
24
31
24
32
32
32
24
31
32
24
24
24
24
24
32
31
31
31
24
31
32
24
24
24
32
31
32
31
24
24
24
24
24
24
31
24
24
24
24
24
31
31
24
32
32
32
32
24
24
24
24
31
24
31
31
24
24
24
24
24
24
24
24
24
24
24
24
32
32
24
24
31
24
24
31
24
24
24
24
24
24
24
24
24
24
24
24
24
24
31
31
24
24
24
24
24
24
24
24
24
24
24
24
24
24
24
24
24
24
24
24
24
24
24
24
24
24
24
24
24
24
24
24
24
24
24
24
24
24
24
24
24
24
24
24
24
24
24
24
24
24
